
************************************************************
 TOWR - Trajectory Optimization for Walking Robots (v1.4)
                © Alexander W. Winkler
           https://github.com/ethz-adrl/towr
************************************************************

0.504
4.561412003533202e-59
0.250143078643133
0
0
0.24
0
0
0
t
-e1
0.21
value fo cmd_return -> t -e1 0.21
next line
0.21
0.19
0.0
0.21
-0.19
0.0
-0.21
0.19
0.0
-0.21
-0.19
0.0
0.01
ee start pos x -> 0.21
ee start pos y -> 0.19
ee start pos z -> 0
ee start pos x -> 0.21
ee start pos y -> -0.19
ee start pos z -> 0
ee start pos x -> -0.21
ee start pos y -> 0.19
ee start pos z -> 0
ee start pos x -> -0.21
ee start pos y -> -0.19
ee start pos z -> 0
start pos x -> 0
start pos y -> 0
start pos z -> 0.24
goal pos x -> 0.504
goal pos y -> 4.56141e-59
goal pos z -> 0.250143
ee start pos x -> 0.21
ee start pos y -> 0.19
ee start pos z -> 0
ee start pos x -> 0.21
ee start pos y -> -0.19
ee start pos z -> 0
ee start pos x -> -0.21
ee start pos y -> 0.19
ee start pos z -> 0
ee start pos x -> -0.21
ee start pos y -> -0.19
ee start pos z -> 0
SOLVER RUN TIME : 15

******************************************************************************
This program contains Ipopt, a library for large-scale nonlinear optimization.
 Ipopt is released as open source code under the Eclipse Public License (EPL).
         For more information visit http://projects.coin-or.org/Ipopt
******************************************************************************

This is Ipopt version 3.11.9, running with linear solver mumps.
NOTE: Other linear solvers might be more efficient (see Ipopt documentation).

Number of nonzeros in equality constraint Jacobian...:    11557
Number of nonzeros in inequality constraint Jacobian.:    20605
Number of nonzeros in Lagrangian Hessian.............:        0

Total number of variables............................:     1005
                     variables with only lower bounds:        0
                variables with lower and upper bounds:        0
                     variables with only upper bounds:        0
Total number of equality constraints.................:      706
Total number of inequality constraints...............:     1024
        inequality constraints with only lower bounds:      112
   inequality constraints with lower and upper bounds:      816
        inequality constraints with only upper bounds:       96

iter    objective    inf_pr   inf_du lg(mu)  ||d||  lg(rg) alpha_du alpha_pr  ls
   0  0.0000000e+00 9.71e+00 1.00e+00   0.0 0.00e+00    -  0.00e+00 0.00e+00   0
   1  0.0000000e+00 8.38e+00 1.66e+01  -0.1 4.90e+00    -  3.91e-01 1.37e-01f  1
   2  0.0000000e+00 6.46e+00 4.12e+01   0.3 7.38e+00    -  9.93e-01 2.29e-01f  1
   3  0.0000000e+00 3.46e-01 1.61e+02   0.4 5.97e+00    -  5.56e-01 9.78e-01h  1
   4  0.0000000e+00 4.52e-03 7.44e+00   0.0 6.59e-01    -  9.45e-01 1.00e+00f  1
   5  0.0000000e+00 4.99e-06 1.35e+00  -2.1 1.15e-01    -  9.88e-01 1.00e+00h  1
   6  0.0000000e+00 1.93e-06 1.24e-03  -3.6 2.13e-02    -  1.00e+00 1.00e+00h  1
   7  0.0000000e+00 3.32e-11 1.81e-05  -9.6 2.46e-06    -  9.99e-01 1.00e+00h  1

Number of Iterations....: 7

                                   (scaled)                 (unscaled)
Objective...............:   0.0000000000000000e+00    0.0000000000000000e+00
Dual infeasibility......:   1.8112716368983450e-05    1.8112716368983450e-05
Constraint violation....:   1.8942727739235460e-11    3.3217872896784684e-11
Complementarity.........:   4.4336222153735175e-07    4.4336222153735175e-07
Overall NLP error.......:   1.8112716368983450e-05    1.8112716368983450e-05


Number of objective function evaluations             = 8
Number of objective gradient evaluations             = 8
Number of equality constraint evaluations            = 8
Number of inequality constraint evaluations          = 8
Number of equality constraint Jacobian evaluations   = 8
Number of inequality constraint Jacobian evaluations = 8
Number of Lagrangian Hessian evaluations             = 0
Total CPU secs in IPOPT (w/o function evaluations)   =      0.311
Total CPU secs in NLP function evaluations           =      0.441

EXIT: Optimal Solution Found.
status -> 0

************************************************************
    IFOPT - Interface to Nonlinear Optimizers (v2.0)
                © Alexander W. Winkler
           https://github.com/ethz-adrl/ifopt
************************************************************
Legend:
c - number of variables, constraints or cost terms
i - indices of this set in overall problem
v - number of [violated variable- or constraint-bounds] or [cost term value]

                                   c             i             v 
variable-sets:
   base-lin                       306        0....305[0m           0[0m
   base-ang                       306      306....611[0m           0[0m
   ee-motion_0                     35      612....646[0m           0[0m
   ee-motion_1                     35      647....681[0m           0[0m
   ee-motion_2                     35      682....716[0m           0[0m
   ee-motion_3                     35      717....751[0m           0[0m
   ee-force_0                      72      752....823[0m           0[0m
   ee-force_1                      72      824....895[0m           0[0m
   ee-force_2                      72      896....967[0m           0[0m
   ee-force_3                      72      968...1039[0m           0[0m

constraint-sets:
   terrain-ee-motion_0             13        0.....12[0m           0[0m
   terrain-ee-motion_1             13       13.....25[0m           0[0m
   terrain-ee-motion_2             13       26.....38[0m           0[0m
   terrain-ee-motion_3             13       39.....51[0m           0[0m
   dynamic                        312       52....363[0m           0[0m
   splineacc-base-lin             147      364....510[0m           0[0m
   splineacc-base-ang             147      511....657[0m           0[0m
   rangeofmotion-0                192      658....849[0m           0[0m
   rangeofmotion-1                192      850...1041[0m           0[0m
   rangeofmotion-2                192     1042...1233[0m           0[0m
   rangeofmotion-3                192     1234...1425[0m           0[0m
   force-ee-force_0                60     1426...1485[0m           0[0m
   force-ee-force_1                60     1486...1545[0m           0[0m
   force-ee-force_2                60     1546...1605[0m           0[0m
   force-ee-force_3                60     1606...1665[0m           0[0m
   swing-ee-motion_0               16     1666...1681[0m           0[0m
   swing-ee-motion_1               16     1682...1697[0m           0[0m
   swing-ee-motion_2               16     1698...1713[0m           0[0m
   swing-ee-motion_3               16     1714...1729[0m           0[0m

cost-terms:


************************************************************
 TOWR - Trajectory Optimization for Walking Robots (v1.4)
                © Alexander W. Winkler
           https://github.com/ethz-adrl/towr
************************************************************

0.8820000000000002
0.0
0.2842920923377332
0.301143
-0.00797673
0.25784
-0.00562728
-0.142018
-0.0155403
t
-e1
0.536162
value fo cmd_return -> t -e1 0.536162
next line
0.536162
0.151227
0.0501431
0.583768
-0.18459
0.0680574
0.0944466
0.178447
0
0.131754
-0.167885
0
3.75
s_vel
0.114138
0.01
-t
3.75
ee start pos x -> 0.536162
ee start pos y -> 0.151227
ee start pos z -> 0.0501431
ee start pos x -> 0.583768
ee start pos y -> -0.18459
ee start pos z -> 0.0680574
ee start pos x -> 0.0944466
ee start pos y -> 0.178447
ee start pos z -> 0
ee start pos x -> 0.131754
ee start pos y -> -0.167885
ee start pos z -> 0
start pos x -> 0.301143
start pos y -> -0.00797673
start pos z -> 0.25784
goal pos x -> 0.882
goal pos y -> 0
goal pos z -> 0.284292
ee start pos x -> 0.536162
ee start pos y -> 0.151227
ee start pos z -> 0.0501431
ee start pos x -> 0.583768
ee start pos y -> -0.18459
ee start pos z -> 0.0680574
ee start pos x -> 0.0944466
ee start pos y -> 0.178447
ee start pos z -> 0
ee start pos x -> 0.131754
ee start pos y -> -0.167885
ee start pos z -> 0
SOLVER RUN TIME : 15

******************************************************************************
This program contains Ipopt, a library for large-scale nonlinear optimization.
 Ipopt is released as open source code under the Eclipse Public License (EPL).
         For more information visit http://projects.coin-or.org/Ipopt
******************************************************************************

This is Ipopt version 3.11.9, running with linear solver mumps.
NOTE: Other linear solvers might be more efficient (see Ipopt documentation).

Number of nonzeros in equality constraint Jacobian...:    11557
Number of nonzeros in inequality constraint Jacobian.:    20605
Number of nonzeros in Lagrangian Hessian.............:        0

Total number of variables............................:     1005
                     variables with only lower bounds:        0
                variables with lower and upper bounds:        0
                     variables with only upper bounds:        0
Total number of equality constraints.................:      706
Total number of inequality constraints...............:     1024
        inequality constraints with only lower bounds:      112
   inequality constraints with lower and upper bounds:      816
        inequality constraints with only upper bounds:       96

iter    objective    inf_pr   inf_du lg(mu)  ||d||  lg(rg) alpha_du alpha_pr  ls
   0  0.0000000e+00 9.71e+00 1.00e+00   0.0 0.00e+00    -  0.00e+00 0.00e+00   0
   1  0.0000000e+00 9.02e+00 6.28e+01   0.2 5.07e+00    -  4.35e-01 7.07e-02f  1
   2  0.0000000e+00 5.32e+00 5.42e+01   0.5 6.94e+00    -  9.95e-01 4.10e-01f  1
   3  0.0000000e+00 2.23e-01 1.48e+02   0.4 4.80e+00    -  7.10e-01 1.00e+00f  1
   4  0.0000000e+00 1.48e-03 2.15e+00  -0.1 3.31e-01    -  1.00e+00 1.00e+00f  1
   5  0.0000000e+00 6.24e-04 3.33e-01  -6.1 1.01e-02    -  9.87e-01 1.00e+00h  1
   6  0.0000000e+00 6.24e-04 1.22e-04  -3.9 5.04e-03    -  1.00e+00 1.00e+00h  1
   7  0.0000000e+00 6.24e-04 4.26e-06  -9.9 2.16e-07    -  9.99e-01 1.00e+00h  1
   8  0.0000000e+00 6.24e-04 2.22e-09 -11.0 9.64e-11    -  9.99e-01 9.99e-01s 22
   9  0.0000000e+00 6.24e-04 3.49e-10 -10.4 3.93e-10    -  1.00e+00 1.00e+00s 22
ERROR: Ipopt failed to find a solution. Return Code: -2
iter    objective    inf_pr   inf_du lg(mu)  ||d||  lg(rg) alpha_du alpha_pr  ls
  10r 0.0000000e+00 6.24e-04 9.99e+02  -3.2 0.00e+00  -4.0 0.00e+00 0.00e+00R  1
  11r 0.0000000e+00 6.24e-04 4.42e-05  -5.1 8.46e-05    -  1.00e+00 9.87e-01f  1
Restoration phase converged to a feasible point that is
unacceptable to the filter for the original problem.
Restoration phase in the restoration phase failed.

Number of Iterations....: 11

                                   (scaled)                 (unscaled)
Objective...............:   0.0000000000000000e+00    0.0000000000000000e+00
Dual infeasibility......:   1.0788332100449536e-05    1.0788332100449536e-05
Constraint violation....:   6.2360415186385465e-04    6.2360415186385465e-04
Complementarity.........:   4.0599544443081671e-06    4.0599544443081671e-06
Overall NLP error.......:   6.2360415186385465e-04    6.2360415186385465e-04


Number of objective function evaluations             = 56
Number of objective gradient evaluations             = 12
Number of equality constraint evaluations            = 56
Number of inequality constraint evaluations          = 56
Number of equality constraint Jacobian evaluations   = 14
Number of inequality constraint Jacobian evaluations = 14
Number of Lagrangian Hessian evaluations             = 0
Total CPU secs in IPOPT (w/o function evaluations)   =      0.416
Total CPU secs in NLP function evaluations           =      0.835

EXIT: Restoration Failed!
status -> -2

************************************************************
    IFOPT - Interface to Nonlinear Optimizers (v2.0)
                © Alexander W. Winkler
           https://github.com/ethz-adrl/ifopt
************************************************************
Legend:
c - number of variables, constraints or cost terms
i - indices of this set in overall problem
v - number of [violated variable- or constraint-bounds] or [cost term value]

                                   c             i             v 
variable-sets:
   base-lin                       306        0....305[0m           0[0m
   base-ang                       306      306....611[0m           0[0m
   ee-motion_0                     35      612....646[0m           0[0m
   ee-motion_1                     35      647....681[0m           0[0m
   ee-motion_2                     35      682....716[0m           0[0m
   ee-motion_3                     35      717....751[0m           0[0m
   ee-force_0                      72      752....823[0m           0[0m
   ee-force_1                      72      824....895[0m           0[0m
   ee-force_2                      72      896....967[0m           0[0m
   ee-force_3                      72      968...1039[0m           0[0m

constraint-sets:
   terrain-ee-motion_0             13        0.....12[0m           0[0m
   terrain-ee-motion_1             13       13.....25[0m           0[0m
   terrain-ee-motion_2             13       26.....38[0m           0[0m
   terrain-ee-motion_3             13       39.....51[0m           0[0m
   dynamic                        312       52....363[0m           0[0m
   splineacc-base-lin             147      364....510[0m           0[0m
   splineacc-base-ang             147      511....657[0m           0[0m
   rangeofmotion-0                192      658....849[0m           0[0m
   rangeofmotion-1                192      850...1041[0m           0[0m
   rangeofmotion-2                192     1042...1233[0m           0[0m
   rangeofmotion-3                192     1234...1425[0m           0[0m
   force-ee-force_0                60     1426...1485[0m           0[0m
   force-ee-force_1                60     1486...1545[0m           0[0m
   force-ee-force_2                60     1546...1605[0m           0[0m
   force-ee-force_3                60     1606...1665[0m           0[0m
   swing-ee-motion_0               16     1666...1681[0m           0[0m
   swing-ee-motion_1               16     1682...1697[0m           0[0m
   swing-ee-motion_2               16     1698...1713[0m           0[0m
   swing-ee-motion_3               16     1714...1729[0m           0[0m

cost-terms:

